benchmarks_vrp/CMT4/no_cluster/CMT4_2.vrp
NAME: CMT4_2
TYPE: CVRP
COMMENT: 1028.42 - Cluster Nr.2
DIMENSION: 12
CAPACITY: 200
EDGE_WEIGHT_TYPE: EUC_2D
NODE_COORD_TYPE: TWOD_COORDS
NODE_COORD_SECTION: 
11 35 35
2 20 26
4 17 34
5 16 22
6 18 24
7 12 24
8 20 26
10 11 31
12 15 30
3 5 30
1 17 33
9 5 25
DEPOT_SECTION: 
11
-1
DEMAND_SECTION: 
2 9
1 41
7 13
9 23
5 41
8 9
10 7
6 22
4 3
11 0
3 2
12 26
EOF
