benchmarks_vrp/CMT4/no_cluster/CMT4_2.tour
NAME: CMT4_2 solution
TYPE: TOUR
TOUR_SECTION:
11 2 8 6 5 7 9 3 10 12 1 4 -1
-1
EOF